p cnf 43 215
-1 -4 -7 0
-1 -4 -41 0
-1 -38 -41 0
-35 -38 -41 0
6 19 0
6 25 0
19 38 0
25 38 0
1 25 0
1 31 0
1 14 0
1 14 0
1 25 0
1 20 0
1 20 0
1 31 0
8 38 0
8 38 0
19 38 0
14 38 0
14 38 0
14 33 0
25 38 0
20 33 0
-32 -35 -38 0
-2 -5 -8 0
-2 -5 -42 0
-2 -39 -42 0
-36 -39 -42 0
7 20 0
7 26 0
20 39 0
26 39 0
2 26 0
2 32 0
2 15 0
2 15 0
2 26 0
2 21 0
2 21 0
2 32 0
9 39 0
9 39 0
20 39 0
15 39 0
15 39 0
15 34 0
26 39 0
21 34 0
-33 -36 -39 0
-3 -6 -9 0
-3 -6 -43 0
-3 -40 -43 0
-37 -40 -43 0
8 21 0
8 27 0
21 40 0
27 40 0
3 27 0
3 33 0
3 16 0
3 16 0
3 27 0
3 22 0
3 22 0
3 33 0
10 40 0
10 40 0
21 40 0
16 40 0
16 40 0
16 35 0
27 40 0
22 35 0
-34 -37 -40 0
-4 -7 -10 0
9 22 0
9 28 0
22 41 0
28 41 0
4 28 0
4 34 0
4 17 0
4 17 0
4 28 0
4 23 0
4 23 0
4 34 0
11 41 0
11 41 0
22 41 0
17 41 0
17 41 0
17 36 0
28 41 0
23 36 0
-5 -8 -11 0
10 23 0
10 29 0
23 42 0
29 42 0
5 29 0
5 35 0
5 18 0
5 18 0
5 29 0
5 24 0
5 24 0
5 35 0
12 42 0
12 42 0
23 42 0
18 42 0
18 42 0
18 37 0
29 42 0
24 37 0
-6 -9 -12 0
11 24 0
11 30 0
24 43 0
30 43 0
6 30 0
6 36 0
6 19 0
6 30 0
6 25 0
6 36 0
13 43 0
13 43 0
24 43 0
19 43 0
19 43 0
30 43 0
-7 -10 -13 0
12 25 0
12 31 0
7 31 0
7 37 0
7 20 0
7 31 0
7 26 0
7 37 0
-8 -11 -14 0
13 26 0
13 32 0
8 32 0
8 21 0
8 32 0
8 27 0
-9 -12 -15 0
14 27 0
14 33 0
9 33 0
9 22 0
9 33 0
9 28 0
-10 -13 -16 0
15 28 0
15 34 0
10 34 0
10 23 0
10 34 0
10 29 0
-11 -14 -17 0
16 29 0
16 35 0
11 35 0
11 24 0
11 35 0
11 30 0
-12 -15 -18 0
17 30 0
17 36 0
12 36 0
12 25 0
12 36 0
12 31 0
-13 -16 -19 0
18 31 0
18 37 0
13 37 0
13 26 0
13 37 0
13 32 0
-14 -17 -20 0
19 32 0
14 27 0
-15 -18 -21 0
20 33 0
15 28 0
-16 -19 -22 0
21 34 0
16 29 0
-17 -20 -23 0
22 35 0
17 30 0
-18 -21 -24 0
23 36 0
18 31 0
-19 -22 -25 0
24 37 0
19 32 0
-20 -23 -26 0
-21 -24 -27 0
-22 -25 -28 0
-23 -26 -29 0
-24 -27 -30 0
-25 -28 -31 0
-26 -29 -32 0
-27 -30 -33 0
-28 -31 -34 0
-29 -32 -35 0
-30 -33 -36 0
-31 -34 -37 0
